NAME: tsp20-49
TYPE: TSP
DIMENSION: 20
EDGE_WEIGHT_TYPE: EUC_2D
NODE_COORD_SECTION
0 20 12
1 47 81
2 51 57
3 86 75
4 22 48
5 34 61
6 14 2
7 6 32
8 23 56
9 63 12
10 41 56
11 43 39
12 34 22
13 59 9
14 93 100
15 25 79
16 23 17
17 32 23
18 37 79
19 58 62
EOF